(set-info :source |printed by MathSAT|)
(declare-fun call_bool6.a () Bool)
(declare-fun call_int6I.time.next () Int)
(declare-fun _OK_.next () Bool)
(declare-fun call_bool6.flby3 () Bool)
(declare-fun call_bool6.flby2 () Bool)
(declare-fun call_int6I.flby () Int)
(declare-fun call_bool6.flby.next () Bool)
(declare-fun call_bool6.c.next () Bool)
(declare-fun call_bool6.flby3.next () Bool)
(declare-fun b.next () Bool)
(declare-fun _OK_ () Bool)
(declare-fun call_bool6.out () Bool)
(declare-fun call_bool6.c () Bool)
(declare-fun call_bool6.b () Bool)
(declare-fun call_int6I.out () Bool)
(declare-fun call_int6I.flby.next () Int)
(declare-fun call_bool6.flby () Bool)
(declare-fun call_int6I.out.next () Bool)
(declare-fun call_bool6.b.next () Bool)
(declare-fun b () Bool)
(declare-fun call_bool6.out.next () Bool)
(declare-fun call_bool6.flby2.next () Bool)
(declare-fun call_bool6.a.next () Bool)
(declare-fun a.next () Bool)
(declare-fun call_int6I.ite.next () Int)
(declare-fun call_int6I.time () Int)
(declare-fun a () Bool)
(define-fun .def_217 () Bool (= call_bool6.flby3.next call_bool6.c.next))
(define-fun .def_215 () Bool (= call_bool6.flby2.next call_bool6.b.next))
(define-fun .def_212 () Bool (= call_bool6.flby.next call_bool6.a.next))
(define-fun .def_209 () Bool (and call_bool6.a.next call_bool6.c.next))
(define-fun .def_210 () Bool (= call_bool6.out.next .def_209))
(define-fun .def_205 () Bool (= call_int6I.flby.next call_int6I.time.next))
(define-fun .def_202 () Bool (= call_int6I.time.next 5))
(define-fun .def_203 () Bool (= call_int6I.out.next .def_202))
(define-fun .def_199 () Bool (= b.next call_bool6.out.next))
(define-fun .def_196 () Bool (= a.next call_int6I.out.next))
(define-fun .def_193 () Bool (= a.next b.next))
(define-fun .def_194 () Bool (= _OK_.next .def_193))
(define-fun .def_197 () Bool (and .def_194 .def_196))
(define-fun .def_200 () Bool (and .def_197 .def_199))
(define-fun .def_204 () Bool (and .def_200 .def_203))
(define-fun .def_206 () Bool (and .def_204 .def_205))
(define-fun .def_211 () Bool (and .def_206 .def_210))
(define-fun .def_213 () Bool (and .def_211 .def_212))
(define-fun .def_216 () Bool (and .def_213 .def_215))
(define-fun .def_218 () Bool (and .def_216 .def_217))
(define-fun .def_149 () Bool (= call_bool6.c call_bool6.flby3))
(define-fun .def_146 () Bool (= call_bool6.b call_bool6.flby2))
(define-fun .def_142 () Bool (= call_bool6.a call_bool6.flby))
(define-fun .def_138 () Bool (and call_bool6.a call_bool6.c))
(define-fun .def_139 () Bool (= call_bool6.out .def_138))
(define-fun .def_134 () Bool (= call_int6I.time call_int6I.flby))
(define-fun .def_130 () Bool (= call_int6I.time 5))
(define-fun .def_131 () Bool (= call_int6I.out .def_130))
(define-fun .def_127 () Bool (= b call_bool6.out))
(define-fun .def_124 () Bool (= a call_int6I.out))
(define-fun .def_121 () Bool (= a b))
(define-fun .def_122 () Bool (= _OK_ .def_121))
(define-fun .def_125 () Bool (and .def_122 .def_124))
(define-fun .def_128 () Bool (and .def_125 .def_127))
(define-fun .def_132 () Bool (and .def_128 .def_131))
(define-fun .def_135 () Bool (and .def_132 .def_134))
(define-fun .def_140 () Bool (and .def_135 .def_139))
(define-fun .def_143 () Bool (and .def_140 .def_142))
(define-fun .def_147 () Bool (and .def_143 .def_146))
(define-fun .def_150 () Bool (and .def_147 .def_149))
(define-fun .def_219 () Bool (and .def_150 .def_218))
(define-fun .def_171 () Bool (not call_bool6.a))
(define-fun .def_185 () Bool (and call_bool6.c .def_171))
(define-fun .def_184 () Bool (and call_bool6.a call_bool6.b))
(define-fun .def_186 () Bool (and .def_184 .def_185))
(define-fun .def_188 () Bool (= .def_186 call_bool6.flby3.next))
(define-fun .def_179 () Bool (and call_bool6.b .def_171))
(define-fun .def_176 () Bool (not call_bool6.b))
(define-fun .def_175 () Bool (not call_bool6.c))
(define-fun .def_177 () Bool (and .def_175 .def_176))
(define-fun .def_178 () Bool (and call_bool6.a .def_177))
(define-fun .def_180 () Bool (or .def_178 .def_179))
(define-fun .def_182 () Bool (= .def_180 call_bool6.flby2.next))
(define-fun .def_173 () Bool (= .def_171 call_bool6.flby.next))
(define-fun .def_169 () Bool (= call_int6I.ite.next call_int6I.flby.next))
(define-fun .def_165 () Bool (not .def_130))
(define-fun .def_164 () Bool (= call_int6I.ite.next 1))
(define-fun .def_166 () Bool (or .def_164 .def_165))
(define-fun .def_160 () Int (* (- 1) call_int6I.ite.next))
(define-fun .def_161 () Int (+ call_int6I.time .def_160))
(define-fun .def_162 () Bool (= .def_161 (- 2)))
(define-fun .def_163 () Bool (or .def_130 .def_162))
(define-fun .def_167 () Bool (and .def_163 .def_166))
(define-fun .def_170 () Bool (and .def_167 .def_169))
(define-fun .def_174 () Bool (and .def_170 .def_173))
(define-fun .def_183 () Bool (and .def_174 .def_182))
(define-fun .def_189 () Bool (and .def_183 .def_188))
(define-fun .def_220 () Bool (and .def_189 .def_219))
(assert .def_220)
